383 401
413 431
443 461
473 491
483 521
533 551
563 581
593 611
623 641
653 671
683 701
713 731
743 761
773 791
803 821
833 851
863 881
893 911
923 941
953 971
983 1001
1013 1031
1043 1061
1073 1091
1103 1021
1133 1151
1163 1181
1193 1211
1223 1241
1253 1271
1283 1301
1313 1331
1343 1361
1373 1391
1403 1421
1433 1451
1463 1481
1493 1511